NAME : in_house_8_17
TYPE : TSP
DIMENSION : 8
EDGE_WEIGHT_TYPE : EXPLICIT
EDGE_WEIGHT_FORMAT : UPPER_ROW
COMMENT : INVERSION_SHIFT=3
EDGE_WEIGHT_SECTION
33
45
6
39
20
59
21
30
25
25
1
45
61
10
21
49
53
20
29
52
62
48
36
47
36
28
14
4
